c ind 10 124 127 13 149 155 157 159 161 188 0
c ind 205 207 209 211 213 215 217 219 221 223 0
c ind 225 227 229 231 233 235 252 254 256 258 0
c ind 260 262 264 266 268 270 272 274 276 278 0
c ind 280 282 30 31 33 35 37 39 41 43 0
c ind 45 47 49 5 51 53 55 57 59 6 0
c ind 61 72 75 76 79 9 0
p cnf 282 753
-1 -2 11 0
-1 2 236 0
-100 101 0
-100 99 0
-101 102 0
-101 99 0
-102 103 0
-102 99 0
-103 104 0
-103 99 0
-104 105 0
-104 99 0
-105 106 0
-105 99 0
-106 107 0
-106 99 0
-107 108 0
-107 99 0
-108 109 0
-108 99 0
-109 110 0
-109 99 0
-11 -12 14 0
-11 12 62 0
-110 111 0
-110 99 0
-111 112 0
-111 99 0
-112 113 0
-112 99 0
-113 114 0
-113 115 0
-114 115 0
-114 99 0
-115 -13 31 0
-115 -31 13 0
-116 -117 119 0
-116 117 162 0
-117 118 0
-117 70 0
-118 -13 6 0
-118 -6 13 0
-119 -120 150 0
-119 120 162 0
-12 -13 9 0
-12 -9 13 0
-120 -121 128 0
-120 121 148 0
-121 122 125 0
-122 -123 0
-123 -124 76 0
-123 -76 124 0
-125 -126 0
-126 -127 79 0
-126 -79 127 0
-128 -129 130 0
-128 129 144 0
-129 -13 79 0
-129 -79 13 0
-130 131 0
-130 99 0
-131 132 0
-131 99 0
-132 133 0
-132 99 0
-133 134 0
-133 99 0
-134 135 0
-134 99 0
-135 136 0
-135 99 0
-136 137 0
-136 99 0
-137 138 0
-137 99 0
-138 139 0
-138 99 0
-139 140 0
-139 99 0
-14 15 0
-14 60 0
-140 141 0
-140 99 0
-141 142 0
-141 99 0
-142 143 0
-142 99 0
-143 114 0
-143 99 0
-144 -145 147 0
-144 145 148 0
-145 122 0
-145 146 0
-146 -13 76 0
-146 -76 13 0
-147 -13 13 0
-148 -13 149 0
-148 -149 13 0
-15 16 0
-15 58 0
-150 -151 162 0
-150 151 169 0
-151 152 0
-151 160 0
-152 153 0
-152 158 0
-153 154 0
-153 156 0
-154 -13 155 0
-154 -155 13 0
-156 -13 157 0
-156 -157 13 0
-158 -13 159 0
-158 -159 13 0
-16 17 0
-16 56 0
-160 -161 31 0
-160 -31 161 0
-162 163 0
-162 168 0
-163 164 0
-163 167 0
-164 165 0
-164 166 0
-165 -13 155 0
-165 -155 13 0
-166 -157 31 0
-166 -31 157 0
-167 -13 159 0
-167 -159 13 0
-168 -161 31 0
-168 -31 161 0
-169 170 0
-169 183 0
-17 18 0
-17 54 0
-170 171 0
-170 179 0
-171 172 0
-171 175 0
-172 -13 173 0
-172 -173 13 0
-173 -174 -31 0
-173 174 31 0
-174 -155 -13 0
-174 155 13 0
-175 -176 31 0
-175 -31 176 0
-176 -177 -178 0
-176 177 178 0
-177 -157 -31 0
-177 157 31 0
-178 155 31 0
-179 -13 180 0
-179 -180 13 0
-18 19 0
-18 52 0
-180 -181 -182 0
-180 181 182 0
-181 -159 -31 0
-181 159 31 0
-182 157 0
-182 178 0
-183 -184 31 0
-183 -31 184 0
-184 -185 -186 0
-184 185 186 0
-185 -161 -31 0
-185 161 31 0
-186 159 0
-186 182 0
-187 -13 188 0
-187 -188 13 0
-189 190 0
-189 234 0
-19 20 0
-19 50 0
-190 191 0
-190 232 0
-191 192 0
-191 230 0
-192 193 0
-192 228 0
-193 194 0
-193 226 0
-194 195 0
-194 224 0
-195 196 0
-195 222 0
-196 197 0
-196 220 0
-197 198 0
-197 218 0
-198 199 0
-198 216 0
-199 200 0
-199 214 0
-2 3 7 0
-20 21 0
-20 48 0
-200 201 0
-200 212 0
-201 202 0
-201 210 0
-202 203 0
-202 208 0
-203 204 0
-203 206 0
-204 -205 30 0
-204 -30 205 0
-206 -207 33 0
-206 -33 207 0
-208 -209 35 0
-208 -35 209 0
-21 22 0
-21 46 0
-210 -211 37 0
-210 -37 211 0
-212 -213 39 0
-212 -39 213 0
-214 -215 41 0
-214 -41 215 0
-216 -217 43 0
-216 -43 217 0
-218 -219 45 0
-218 -45 219 0
-22 23 0
-22 44 0
-220 -221 47 0
-220 -47 221 0
-222 -223 49 0
-222 -49 223 0
-224 -225 51 0
-224 -51 225 0
-226 -227 53 0
-226 -53 227 0
-228 -229 55 0
-228 -55 229 0
-23 24 0
-23 42 0
-230 -231 57 0
-230 -57 231 0
-232 -233 59 0
-232 -59 233 0
-234 -235 61 0
-234 -61 235 0
-236 237 0
-236 281 0
-237 238 0
-237 279 0
-238 239 0
-238 277 0
-239 240 0
-239 275 0
-24 25 0
-24 40 0
-240 241 0
-240 273 0
-241 242 0
-241 271 0
-242 243 0
-242 269 0
-243 244 0
-243 267 0
-244 245 0
-244 265 0
-245 246 0
-245 263 0
-246 247 0
-246 261 0
-247 248 0
-247 259 0
-248 249 0
-248 257 0
-249 250 0
-249 255 0
-25 26 0
-25 38 0
-250 251 0
-250 253 0
-251 -252 30 0
-251 -30 252 0
-253 -254 33 0
-253 -33 254 0
-255 -256 35 0
-255 -35 256 0
-257 -258 37 0
-257 -37 258 0
-259 -260 39 0
-259 -39 260 0
-26 27 0
-26 36 0
-261 -262 41 0
-261 -41 262 0
-263 -264 43 0
-263 -43 264 0
-265 -266 45 0
-265 -45 266 0
-267 -268 47 0
-267 -47 268 0
-269 -270 49 0
-269 -49 270 0
-27 28 0
-27 34 0
-271 -272 51 0
-271 -51 272 0
-273 -274 53 0
-273 -53 274 0
-275 -276 55 0
-275 -55 276 0
-277 -278 57 0
-277 -57 278 0
-279 -280 59 0
-279 -59 280 0
-28 29 0
-28 32 0
-281 -282 61 0
-281 -61 282 0
-29 -30 31 0
-29 -31 30 0
-3 -4 0
-31 0
-32 -31 33 0
-32 -33 31 0
-34 -31 35 0
-34 -35 31 0
-36 -31 37 0
-36 -37 31 0
-38 -31 39 0
-38 -39 31 0
-4 -5 6 0
-4 -6 5 0
-40 -31 41 0
-40 -41 31 0
-42 -31 43 0
-42 -43 31 0
-44 -31 45 0
-44 -45 31 0
-46 -31 47 0
-46 -47 31 0
-48 -31 49 0
-48 -49 31 0
-50 -31 51 0
-50 -51 31 0
-52 -31 53 0
-52 -53 31 0
-54 -31 55 0
-54 -55 31 0
-56 -31 57 0
-56 -57 31 0
-58 -31 59 0
-58 -59 31 0
-60 -31 61 0
-60 -61 31 0
-62 -63 65 0
-62 63 236 0
-63 3 0
-63 64 0
-64 -13 5 0
-64 -5 13 0
-65 -66 189 0
-65 66 236 0
-66 187 0
-66 67 0
-67 -68 80 0
-67 68 162 0
-68 69 77 0
-69 70 73 0
-7 -8 0
-70 -71 0
-71 -6 72 0
-71 -72 6 0
-73 -74 0
-74 -75 76 0
-74 -76 75 0
-77 -78 0
-78 -10 79 0
-78 -79 10 0
-8 -10 9 0
-8 -9 10 0
-80 -81 100 0
-80 81 116 0
-81 82 83 0
-82 -10 13 0
-82 -13 10 0
-83 84 0
-83 99 0
-84 85 0
-84 99 0
-85 86 0
-85 99 0
-86 87 0
-86 99 0
-87 88 0
-87 99 0
-88 89 0
-88 99 0
-89 90 0
-89 99 0
-90 91 0
-90 99 0
-91 92 0
-91 99 0
-92 93 0
-92 99 0
-93 94 0
-93 99 0
-94 95 0
-94 99 0
-95 96 0
-95 99 0
-96 97 0
-96 99 0
-97 98 0
-97 99 0
-98 -31 75 0
-98 -75 31 0
-99 -31 31 0
1 -11 -236 0
1 -2 -11 0
1 0
1 2 -236 0
100 -101 -99 0
101 -102 -99 0
102 -103 -99 0
103 -104 -99 0
104 -105 -99 0
105 -106 -99 0
106 -107 -99 0
107 -108 -99 0
108 -109 -99 0
109 -110 -99 0
11 -12 -14 0
11 -14 -62 0
11 12 -62 0
110 -111 -99 0
111 -112 -99 0
112 -113 -99 0
113 -114 -115 0
114 -115 -99 0
115 -13 -31 0
115 13 31 0
116 -117 -119 0
116 -119 -162 0
116 117 -162 0
117 -70 -118 0
118 -6 -13 0
118 6 13 0
119 -120 -150 0
119 -150 -162 0
119 120 -162 0
12 -9 -13 0
12 9 13 0
120 -121 -128 0
120 -128 -148 0
120 121 -148 0
121 -122 0
121 -125 0
122 123 0
123 -76 -124 0
123 76 124 0
125 126 0
126 -79 -127 0
126 79 127 0
128 -129 -130 0
128 -130 -144 0
128 129 -144 0
129 -79 -13 0
129 79 13 0
13 0
130 -131 -99 0
131 -132 -99 0
132 -133 -99 0
133 -134 -99 0
134 -135 -99 0
135 -136 -99 0
136 -137 -99 0
137 -138 -99 0
138 -139 -99 0
139 -140 -99 0
14 -15 -60 0
140 -141 -99 0
141 -142 -99 0
142 -143 -99 0
143 -114 -99 0
144 -145 -147 0
144 -147 -148 0
144 145 -148 0
145 -122 -146 0
146 -76 -13 0
146 76 13 0
147 -13 -13 0
147 13 13 0
148 -13 -149 0
148 13 149 0
15 -16 -58 0
150 -151 -162 0
150 -162 -169 0
150 151 -169 0
151 -152 -160 0
152 -153 -158 0
153 -154 -156 0
154 -155 -13 0
154 155 13 0
156 -157 -13 0
156 157 13 0
158 -159 -13 0
158 159 13 0
16 -17 -56 0
160 -161 -31 0
160 161 31 0
162 -163 -168 0
163 -164 -167 0
164 -165 -166 0
165 -13 -155 0
165 13 155 0
166 -31 -157 0
166 31 157 0
167 -13 -159 0
167 13 159 0
168 -31 -161 0
168 31 161 0
169 -170 -183 0
17 -18 -54 0
170 -171 -179 0
171 -172 -175 0
172 -13 -173 0
172 13 173 0
173 -174 31 0
173 -31 174 0
174 -13 155 0
174 -155 13 0
175 -31 -176 0
175 31 176 0
176 -177 178 0
176 -178 177 0
177 -157 31 0
177 -31 157 0
178 -155 0
178 -31 0
179 -13 -180 0
179 13 180 0
18 -19 -52 0
180 -181 182 0
180 -182 181 0
181 -159 31 0
181 -31 159 0
182 -157 -178 0
183 -31 -184 0
183 31 184 0
184 -185 186 0
184 -186 185 0
185 -161 31 0
185 -31 161 0
186 -159 -182 0
187 -188 -13 0
187 188 13 0
189 -190 -234 0
19 -20 -50 0
190 -191 -232 0
191 -192 -230 0
192 -193 -228 0
193 -194 -226 0
194 -195 -224 0
195 -196 -222 0
196 -197 -220 0
197 -198 -218 0
198 -199 -216 0
199 -200 -214 0
2 -3 0
2 -7 0
20 -21 -48 0
200 -201 -212 0
201 -202 -210 0
202 -203 -208 0
203 -204 -206 0
204 -30 -205 0
204 30 205 0
206 -33 -207 0
206 33 207 0
208 -35 -209 0
208 35 209 0
21 -22 -46 0
210 -37 -211 0
210 37 211 0
212 -39 -213 0
212 39 213 0
214 -41 -215 0
214 41 215 0
216 -43 -217 0
216 43 217 0
218 -45 -219 0
218 45 219 0
22 -23 -44 0
220 -47 -221 0
220 47 221 0
222 -49 -223 0
222 49 223 0
224 -51 -225 0
224 51 225 0
226 -53 -227 0
226 53 227 0
228 -55 -229 0
228 55 229 0
23 -24 -42 0
230 -57 -231 0
230 57 231 0
232 -59 -233 0
232 59 233 0
234 -61 -235 0
234 61 235 0
236 -237 -281 0
237 -238 -279 0
238 -239 -277 0
239 -240 -275 0
24 -25 -40 0
240 -241 -273 0
241 -242 -271 0
242 -243 -269 0
243 -244 -267 0
244 -245 -265 0
245 -246 -263 0
246 -247 -261 0
247 -248 -259 0
248 -249 -257 0
249 -250 -255 0
25 -26 -38 0
250 -251 -253 0
251 -30 -252 0
251 30 252 0
253 -33 -254 0
253 33 254 0
255 -35 -256 0
255 35 256 0
257 -37 -258 0
257 37 258 0
259 -39 -260 0
259 39 260 0
26 -27 -36 0
261 -41 -262 0
261 41 262 0
263 -43 -264 0
263 43 264 0
265 -45 -266 0
265 45 266 0
267 -47 -268 0
267 47 268 0
269 -49 -270 0
269 49 270 0
27 -28 -34 0
271 -51 -272 0
271 51 272 0
273 -53 -274 0
273 53 274 0
275 -55 -276 0
275 55 276 0
277 -57 -278 0
277 57 278 0
279 -59 -280 0
279 59 280 0
28 -29 -32 0
281 -61 -282 0
281 61 282 0
29 -30 -31 0
29 30 31 0
3 4 0
32 -33 -31 0
32 33 31 0
34 -35 -31 0
34 35 31 0
36 -37 -31 0
36 37 31 0
38 -39 -31 0
38 39 31 0
4 -5 -6 0
4 5 6 0
40 -41 -31 0
40 41 31 0
42 -43 -31 0
42 43 31 0
44 -45 -31 0
44 45 31 0
46 -47 -31 0
46 47 31 0
48 -49 -31 0
48 49 31 0
50 -51 -31 0
50 51 31 0
52 -53 -31 0
52 53 31 0
54 -55 -31 0
54 55 31 0
56 -57 -31 0
56 57 31 0
58 -59 -31 0
58 59 31 0
60 -61 -31 0
60 61 31 0
62 -63 -65 0
62 -65 -236 0
62 63 -236 0
63 -3 -64 0
64 -5 -13 0
64 5 13 0
65 -189 -236 0
65 -66 -189 0
65 66 -236 0
66 -67 -187 0
67 -68 -80 0
67 -80 -162 0
67 68 -162 0
68 -69 0
68 -77 0
69 -70 0
69 -73 0
7 8 0
70 71 0
71 -6 -72 0
71 6 72 0
73 74 0
74 -75 -76 0
74 75 76 0
77 78 0
78 -10 -79 0
78 10 79 0
8 -9 -10 0
8 9 10 0
80 -100 -116 0
80 -81 -100 0
80 81 -116 0
81 -82 0
81 -83 0
82 -10 -13 0
82 10 13 0
83 -84 -99 0
84 -85 -99 0
85 -86 -99 0
86 -87 -99 0
87 -88 -99 0
88 -89 -99 0
89 -90 -99 0
90 -91 -99 0
91 -92 -99 0
92 -93 -99 0
93 -94 -99 0
94 -95 -99 0
95 -96 -99 0
96 -97 -99 0
97 -98 -99 0
98 -75 -31 0
98 75 31 0
99 -31 -31 0
99 31 31 0
